experiment/data/hgs-res/Vrp-Set-P-n60/Vrp-Set-P-n60-hgs/0.hgs1.tour
Route #1: 16 23 56 41 42 43 1
Route #2: 6 33 22 28 2
Route #3: 30 21 59 36 47 29
Route #4: 45 57 15 20 37 5 48
Route #5: 4 52 46 34
Route #6: 27 13 54 19 14 35 8
Route #7: 7 53 11 38 58
Route #8: 39 9 25 55 31 10
Route #9: 17 3 44 40 12 26
Route #10: 51 49 24 18 50 32
Cost 748.074
